\ Model CVX
\ LP format - for model browsing. Use MPS format to capture full model detail.
Minimize
  C0
Subject To
 (0,_0)[0]: - C0 + beta(0,0) - alpha(0,0)[0] + alpha(0,0)[1] = 0
 (0,_0)[1]: - C1 + beta(0,0) - alpha(0,0)[2] + alpha(0,0)[3] = 0
 (0,_0)[2]: - C5 + beta(0,0) - alpha(0,0)[4] + alpha(0,0)[5] = 0
 0: C0 - beta(0,0) + 0.1593396354199189 alpha(0,0)[0]
   - 0.3006603645800812 alpha(0,0)[1] + 0.4293396354199189 alpha(0,0)[2]
   - 0.5706603645800812 alpha(0,0)[3] + 0.1993396354199189 alpha(0,0)[4]
   - 0.3406603645800811 alpha(0,0)[5] = 0.1
 (1,_0)[0]: - C1 + beta(1,0) - alpha(1,0)[0] + alpha(1,0)[1]
   - alpha(1,0)[6] = 0
 (1,_0)[1]: - C2 + beta(1,0) - alpha(1,0)[2] + alpha(1,0)[3] = 0
 (1,_0)[2]: - C6 + beta(1,0) - alpha(1,0)[4] + alpha(1,0)[5] = 0
 1: C1 - beta(1,0) - 0.0823873415340408 alpha(1,0)[0]
   - 0.1623873415340408 alpha(1,0)[1] + 0.3776126584659592 alpha(1,0)[2]
   - 0.6223873415340408 alpha(1,0)[3] + 0.3376126584659592 alpha(1,0)[4]
   - 0.5823873415340408 alpha(1,0)[5] + 1e-06 alpha(1,0)[6] = 0.1
 (2,_0)[0]: - C2 + beta(2,0) - alpha(2,0)[0] + alpha(2,0)[1] = 0
 (2,_0)[1]: - C3 + beta(2,0) - alpha(2,0)[2] + alpha(2,0)[3] = 0
 (2,_0)[2]: - C7 + beta(2,0) - alpha(2,0)[4] + alpha(2,0)[5] = 0
 2: C2 - beta(2,0) + 0.1621327819269414 alpha(2,0)[0]
   - 0.2885338847397252 alpha(2,0)[1] + 0.4367994485936081 alpha(2,0)[2]
   - 0.5632005514063919 alpha(2,0)[3] + 0.2114661152602748 alpha(2,0)[4]
   - 0.3378672180730586 alpha(2,0)[5] = 0.1
 (3,_0)[0]: - C3 + beta(3,0) - alpha(3,0)[0] + alpha(3,0)[1] = 0
 (3,_0)[1]: - C4 + beta(3,0) - alpha(3,0)[2] + alpha(3,0)[3] = 0
 (3,_0)[2]: - C32 + beta(3,0) - alpha(3,0)[4] + alpha(3,0)[5] = 0
 3: C3 - beta(3,0) + 0.1621327819269414 alpha(3,0)[0]
   - 0.2885338847397252 alpha(3,0)[1] + 0.4367994485936081 alpha(3,0)[2]
   - 0.5632005514063919 alpha(3,0)[3] + 0.2114661152602748 alpha(3,0)[4]
   - 0.3378672180730586 alpha(3,0)[5] = 0.1
 (4,_0)[0]: - C0 + beta(4,0) - alpha(4,0)[0] + alpha(4,0)[1] = 0
 (4,_0)[1]: - C4 + beta(4,0) - alpha(4,0)[2] + alpha(4,0)[3] = 0
 (4,_0)[2]: - C8 + beta(4,0) - alpha(4,0)[4] + alpha(4,0)[5] = 0
 4: C4 - beta(4,0) + 0.4134590808698858 alpha(4,0)[0]
   - 0.5865409191301143 alpha(4,0)[1] + 0.1384590808698857 alpha(4,0)[2]
   - 0.3115409191301143 alpha(4,0)[3] + 0.1884590808698858 alpha(4,0)[4]
   - 0.3615409191301143 alpha(4,0)[5] = 0.1
 (5,_0)[0]: - C5 + beta(5,0) - alpha(5,0)[0] + alpha(5,0)[1] = 0
 (5,_0)[1]: - C6 + beta(5,0) - alpha(5,0)[2] + alpha(5,0)[3] = 0
 (5,_0)[2]: - C9 + beta(5,0) - alpha(5,0)[4] + alpha(5,0)[5] = 0
 5: C5 - beta(5,0) + 0.0784084389773061 alpha(5,0)[0]
   - 0.2415915610226939 alpha(5,0)[1] + 0.4184084389773061 alpha(5,0)[2]
   - 0.5815915610226938 alpha(5,0)[3] + 0.2584084389773061 alpha(5,0)[4]
   - 0.4215915610226939 alpha(5,0)[5] = 0.1
 (6,_0)[0]: - C6 + beta(6,0) - alpha(6,0)[0] + alpha(6,0)[1] = 0
 (6,_0)[1]: - C7 + beta(6,0) - alpha(6,0)[2] + alpha(6,0)[3] = 0
 (6,_0)[2]: - C10 + beta(6,0) - alpha(6,0)[4] + alpha(6,0)[5] = 0
 6: C6 - beta(6,0) + 0.1621327819269414 alpha(6,0)[0]
   - 0.2885338847397252 alpha(6,0)[1] + 0.4367994485936081 alpha(6,0)[2]
   - 0.5632005514063919 alpha(6,0)[3] + 0.2114661152602748 alpha(6,0)[4]
   - 0.3378672180730586 alpha(6,0)[5] = 0.1
 (7,_0)[0]: - C7 + beta(7,0) - alpha(7,0)[0] + alpha(7,0)[1] = 0
 (7,_0)[1]: - C11 + beta(7,0) - alpha(7,0)[2] + alpha(7,0)[3] = 0
 (7,_0)[2]: - C32 + beta(7,0) - alpha(7,0)[4] + alpha(7,0)[5] = 0
 7: C7 - beta(7,0) + 0.1593396354199189 alpha(7,0)[0]
   - 0.3006603645800812 alpha(7,0)[1] + 0.1993396354199189 alpha(7,0)[2]
   - 0.3406603645800811 alpha(7,0)[3] + 0.4293396354199189 alpha(7,0)[4]
   - 0.5706603645800812 alpha(7,0)[5] = 0.1
 (8,_0)[0]: - C5 + beta(8,0) - alpha(8,0)[0] + alpha(8,0)[1] = 0
 (8,_0)[1]: - C8 + beta(8,0) - alpha(8,0)[2] + alpha(8,0)[3] = 0
 (8,_0)[2]: - C13 + beta(8,0) - alpha(8,0)[4] + alpha(8,0)[5] = 0
 8: C8 - beta(8,0) + 0.4000711540886218 alpha(8,0)[0]
   - 0.5999288459113782 alpha(8,0)[1] + 0.1534044874219551 alpha(8,0)[2]
   - 0.3532621792447116 alpha(8,0)[3] + 0.1467378207552884 alpha(8,0)[4]
   - 0.3465955125780449 alpha(8,0)[5] = 0.1
 (9,_0)[0]: - C9 + beta(9,0) - alpha(9,0)[0] + alpha(9,0)[1] = 0
 (9,_0)[1]: - C10 + beta(9,0) - alpha(9,0)[2] + alpha(9,0)[3] = 0
 (9,_0)[2]: - C14 + beta(9,0) - alpha(9,0)[4] + alpha(9,0)[5] = 0
 9: C9 - beta(9,0) + 0.1384590808698857 alpha(9,0)[0]
   - 0.3115409191301143 alpha(9,0)[1] + 0.4134590808698858 alpha(9,0)[2]
   - 0.5865409191301143 alpha(9,0)[3] + 0.1884590808698858 alpha(9,0)[4]
   - 0.3615409191301143 alpha(9,0)[5] = 0.1
 (10,_0)[0]: - C10 + beta(10,0) - alpha(10,0)[0] + alpha(10,0)[1] = 0
 (10,_0)[1]: - C11 + beta(10,0) - alpha(10,0)[2] + alpha(10,0)[3] = 0
 (10,_0)[2]: - C15 + beta(10,0) - alpha(10,0)[4] + alpha(10,0)[5] = 0
 10: C10 - beta(10,0) + 0.0788669285002187 alpha(10,0)[0]
   - 0.2097045000712099 alpha(10,0)[1] + 0.4345812142145044 alpha(10,0)[2]
   - 0.5654187857854955 alpha(10,0)[3] + 0.2902954999287901 alpha(10,0)[4]
   - 0.4211330714997813 alpha(10,0)[5] = 0.1
 (11,_0)[0]: - C11 + beta(11,0) - alpha(11,0)[0] + alpha(11,0)[1] = 0
 (11,_0)[1]: - C12 + beta(11,0) - alpha(11,0)[2] + alpha(11,0)[3] = 0
 (11,_0)[2]: - C16 + beta(11,0) - alpha(11,0)[4] + alpha(11,0)[5] = 0
 11: C11 - beta(11,0) + 5.9544879590102406e-04 alpha(11,0)[0]
   - 0.155404551204099 alpha(11,0)[1] + 0.4225954487959011 alpha(11,0)[2]
   - 0.5774045512040989 alpha(11,0)[3] + 0.344595448795901 alpha(11,0)[4]
   - 0.499404551204099 alpha(11,0)[5] = 0.1
 (12,_0)[0]: - C12 + beta(12,0) - alpha(12,0)[0] + alpha(12,0)[1] = 0
 (12,_0)[1]: - C13 + beta(12,0) - alpha(12,0)[2] + alpha(12,0)[3] = 0
 (12,_0)[2]: - C17 + beta(12,0) - alpha(12,0)[4] + alpha(12,0)[5] = 0
 12: C12 - beta(12,0) + 5.9544879590102406e-04 alpha(12,0)[0]
   - 0.155404551204099 alpha(12,0)[1] + 0.4225954487959011 alpha(12,0)[2]
   - 0.5774045512040989 alpha(12,0)[3] + 0.344595448795901 alpha(12,0)[4]
   - 0.499404551204099 alpha(12,0)[5] = 0.1
 (13,_0)[0]: - C9 + beta(13,0) - alpha(13,0)[0] + alpha(13,0)[1] = 0
 (13,_0)[1]: - C13 + beta(13,0) - alpha(13,0)[2] + alpha(13,0)[3] = 0
 (13,_0)[2]: - C18 + beta(13,0) - alpha(13,0)[4] + alpha(13,0)[5] = 0
 13: C13 - beta(13,0) + 0.4134590808698858 alpha(13,0)[0]
   - 0.5865409191301143 alpha(13,0)[1] + 0.1359590808698857 alpha(13,0)[2]
   - 0.3090409191301143 alpha(13,0)[3] + 0.1909590808698857 alpha(13,0)[4]
   - 0.3640409191301142 alpha(13,0)[5] = 0.1
 (14,_0)[0]: - C14 + beta(14,0) - alpha(14,0)[0] + alpha(14,0)[1] = 0
 (14,_0)[1]: - C15 + beta(14,0) - alpha(14,0)[2] + alpha(14,0)[3] = 0
 (14,_0)[2]: - C19 + beta(14,0) - alpha(14,0)[4] + alpha(14,0)[5] = 0
 14: C14 - beta(14,0) + 0.0788669285002187 alpha(14,0)[0]
   - 0.2097045000712099 alpha(14,0)[1] + 0.4345812142145044 alpha(14,0)[2]
   - 0.5654187857854955 alpha(14,0)[3] + 0.2902954999287901 alpha(14,0)[4]
   - 0.4211330714997813 alpha(14,0)[5] = 0.1
 (15,_0)[0]: - C15 + beta(15,0) - alpha(15,0)[0] + alpha(15,0)[1] = 0
 (15,_0)[1]: - C16 + beta(15,0) - alpha(15,0)[2] + alpha(15,0)[3] = 0
 (15,_0)[2]: - C20 + beta(15,0) - alpha(15,0)[4] + alpha(15,0)[5] = 0
 15: C15 - beta(15,0) + 0.1384590808698857 alpha(15,0)[0]
   - 0.3115409191301143 alpha(15,0)[1] + 0.4134590808698858 alpha(15,0)[2]
   - 0.5865409191301143 alpha(15,0)[3] + 0.1884590808698858 alpha(15,0)[4]
   - 0.3615409191301143 alpha(15,0)[5] = 0.1
 (16,_0)[0]: - C16 + beta(16,0) - alpha(16,0)[0] + alpha(16,0)[1] = 0
 (16,_0)[1]: - C17 + beta(16,0) - alpha(16,0)[2] + alpha(16,0)[3] = 0
 (16,_0)[2]: - C21 + beta(16,0) - alpha(16,0)[4] + alpha(16,0)[5] = 0
 16: C16 - beta(16,0) + 0.1384590808698857 alpha(16,0)[0]
   - 0.3115409191301143 alpha(16,0)[1] + 0.4134590808698858 alpha(16,0)[2]
   - 0.5865409191301143 alpha(16,0)[3] + 0.1884590808698858 alpha(16,0)[4]
   - 0.3615409191301143 alpha(16,0)[5] = 0.1
 (17,_0)[0]: - C17 + beta(17,0) - alpha(17,0)[0] + alpha(17,0)[1] = 0
 (17,_0)[1]: - C18 + beta(17,0) - alpha(17,0)[2] + alpha(17,0)[3] = 0
 (17,_0)[2]: - C22 + beta(17,0) - alpha(17,0)[4] + alpha(17,0)[5] = 0
 17: C17 - beta(17,0) + 5.9544879590102406e-04 alpha(17,0)[0]
   - 0.155404551204099 alpha(17,0)[1] + 0.4225954487959011 alpha(17,0)[2]
   - 0.5774045512040989 alpha(17,0)[3] + 0.344595448795901 alpha(17,0)[4]
   - 0.499404551204099 alpha(17,0)[5] = 0.1
 (18,_0)[0]: - C14 + beta(18,0) - alpha(18,0)[0] + alpha(18,0)[1] = 0
 (18,_0)[1]: - C18 + beta(18,0) - alpha(18,0)[2] + alpha(18,0)[3] = 0
 (18,_0)[2]: - C23 + beta(18,0) - alpha(18,0)[4] + alpha(18,0)[5] = 0
 18: C18 - beta(18,0) + 0.4134590808698858 alpha(18,0)[0]
   - 0.5865409191301143 alpha(18,0)[1] + 0.1359590808698857 alpha(18,0)[2]
   - 0.3090409191301143 alpha(18,0)[3] + 0.1909590808698857 alpha(18,0)[4]
   - 0.3640409191301142 alpha(18,0)[5] = 0.1
 (19,_0)[0]: - C0 + beta(19,0) - alpha(19,0)[0] + alpha(19,0)[1] = 0
 (19,_0)[1]: - C19 + beta(19,0) - alpha(19,0)[2] + alpha(19,0)[3] = 0
 (19,_0)[2]: - C20 + beta(19,0) - alpha(19,0)[4] + alpha(19,0)[5] = 0
 19: C19 - beta(19,0) + 0.1993396354199189 alpha(19,0)[0]
   - 0.3406603645800811 alpha(19,0)[1] + 0.1593396354199189 alpha(19,0)[2]
   - 0.3006603645800812 alpha(19,0)[3] + 0.4293396354199189 alpha(19,0)[4]
   - 0.5706603645800812 alpha(19,0)[5] = 0.1
 (20,_0)[0]: - C1 + beta(20,0) - alpha(20,0)[0] + alpha(20,0)[1] = 0
 (20,_0)[1]: - C20 + beta(20,0) - alpha(20,0)[2] + alpha(20,0)[3] = 0
 (20,_0)[2]: - C21 + beta(20,0) - alpha(20,0)[4] + alpha(20,0)[5] = 0
 20: C20 - beta(20,0) + 0.2584084389773061 alpha(20,0)[0]
   - 0.4215915610226939 alpha(20,0)[1] + 0.0784084389773061 alpha(20,0)[2]
   - 0.2415915610226939 alpha(20,0)[3] + 0.4184084389773061 alpha(20,0)[4]
   - 0.5815915610226938 alpha(20,0)[5] = 0.1
 (21,_0)[0]: - C2 + beta(21,0) - alpha(21,0)[0] + alpha(21,0)[1] = 0
 (21,_0)[1]: - C21 + beta(21,0) - alpha(21,0)[2] + alpha(21,0)[3] = 0
 (21,_0)[2]: - C22 + beta(21,0) - alpha(21,0)[4] + alpha(21,0)[5] = 0
 21: C21 - beta(21,0) + 0.344595448795901 alpha(21,0)[0]
   - 0.499404551204099 alpha(21,0)[1]
   + 5.9544879590102406e-04 alpha(21,0)[2]
   - 0.155404551204099 alpha(21,0)[3] + 0.4225954487959011 alpha(21,0)[4]
   - 0.5774045512040989 alpha(21,0)[5] = 0.1
 (22,_0)[0]: - C3 + beta(22,0) - alpha(22,0)[0] + alpha(22,0)[1] = 0
 (22,_0)[1]: - C22 + beta(22,0) - alpha(22,0)[2] + alpha(22,0)[3] = 0
 (22,_0)[2]: - C23 + beta(22,0) - alpha(22,0)[4] + alpha(22,0)[5] = 0
 22: C22 - beta(22,0) + 0.2584084389773061 alpha(22,0)[0]
   - 0.4215915610226939 alpha(22,0)[1] + 0.0784084389773061 alpha(22,0)[2]
   - 0.2415915610226939 alpha(22,0)[3] + 0.4184084389773061 alpha(22,0)[4]
   - 0.5815915610226938 alpha(22,0)[5] = 0.1
 (23,_0)[0]: - C4 + beta(23,0) - alpha(23,0)[0] + alpha(23,0)[1] = 0
 (23,_0)[1]: - C19 + beta(23,0) - alpha(23,0)[2] + alpha(23,0)[3] = 0
 (23,_0)[2]: - C23 + beta(23,0) - alpha(23,0)[4] + alpha(23,0)[5] = 0
 23: C23 - beta(23,0) + 0.1467378207552884 alpha(23,0)[0]
   - 0.3465955125780449 alpha(23,0)[1] + 0.4000711540886218 alpha(23,0)[2]
   - 0.5999288459113782 alpha(23,0)[3] + 0.1534044874219551 alpha(23,0)[4]
   - 0.3532621792447116 alpha(23,0)[5] = 0.1
 (24,_0)[0]: - C24 + beta(24,0) - alpha(24,0)[0] + alpha(24,0)[1] = 0
 (24,_0)[1]: - C25 + beta(24,0) - alpha(24,0)[2] + alpha(24,0)[3] = 0
 (24,_0)[2]: - C29 + beta(24,0) - alpha(24,0)[4] + alpha(24,0)[5] = 0
 24: C24 - beta(24,0) + 0.1593396354199189 alpha(24,0)[0]
   - 0.3006603645800812 alpha(24,0)[1] + 0.4293396354199189 alpha(24,0)[2]
   - 0.5706603645800812 alpha(24,0)[3] + 0.1993396354199189 alpha(24,0)[4]
   - 0.3406603645800811 alpha(24,0)[5] = 0.1
 (25,_0)[0]: - C25 + beta(25,0) - alpha(25,0)[0] + alpha(25,0)[1]
   - alpha(25,0)[6] = 0
 (25,_0)[1]: - C26 + beta(25,0) - alpha(25,0)[2] + alpha(25,0)[3] = 0
 (25,_0)[2]: - C30 + beta(25,0) - alpha(25,0)[4] + alpha(25,0)[5] = 0
 25: C25 - beta(25,0) - 0.0823873415340408 alpha(25,0)[0]
   - 0.1623873415340408 alpha(25,0)[1] + 0.3776126584659592 alpha(25,0)[2]
   - 0.6223873415340408 alpha(25,0)[3] + 0.3376126584659592 alpha(25,0)[4]
   - 0.5823873415340408 alpha(25,0)[5] + 1e-06 alpha(25,0)[6] = 0.1
 (26,_0)[0]: - C26 + beta(26,0) - alpha(26,0)[0] + alpha(26,0)[1] = 0
 (26,_0)[1]: - C27 + beta(26,0) - alpha(26,0)[2] + alpha(26,0)[3] = 0
 (26,_0)[2]: - C31 + beta(26,0) - alpha(26,0)[4] + alpha(26,0)[5] = 0
 26: C26 - beta(26,0) + 0.1621327819269414 alpha(26,0)[0]
   - 0.2885338847397252 alpha(26,0)[1] + 0.4367994485936081 alpha(26,0)[2]
   - 0.5632005514063919 alpha(26,0)[3] + 0.2114661152602748 alpha(26,0)[4]
   - 0.3378672180730586 alpha(26,0)[5] = 0.1
 (27,_0)[0]: - C27 + beta(27,0) - alpha(27,0)[0] + alpha(27,0)[1] = 0
 (27,_0)[1]: - C28 + beta(27,0) - alpha(27,0)[2] + alpha(27,0)[3] = 0
 (27,_0)[2]: - C32 + beta(27,0) - alpha(27,0)[4] + alpha(27,0)[5] = 0
 27: C27 - beta(27,0) + 0.1621327819269414 alpha(27,0)[0]
   - 0.2885338847397252 alpha(27,0)[1] + 0.4367994485936081 alpha(27,0)[2]
   - 0.5632005514063919 alpha(27,0)[3] + 0.2114661152602748 alpha(27,0)[4]
   - 0.3378672180730586 alpha(27,0)[5] = 0.1
 (28,_0)[0]: - C24 + beta(28,0) - alpha(28,0)[0] + alpha(28,0)[1] = 0
 (28,_0)[1]: - C28 + beta(28,0) - alpha(28,0)[2] + alpha(28,0)[3] = 0
 (28,_0)[2]: - C33 + beta(28,0) - alpha(28,0)[4] + alpha(28,0)[5] = 0
 28: C28 - beta(28,0) + 0.4134590808698858 alpha(28,0)[0]
   - 0.5865409191301143 alpha(28,0)[1] + 0.1384590808698857 alpha(28,0)[2]
   - 0.3115409191301143 alpha(28,0)[3] + 0.1884590808698858 alpha(28,0)[4]
   - 0.3615409191301143 alpha(28,0)[5] = 0.1
 (29,_0)[0]: - C29 + beta(29,0) - alpha(29,0)[0] + alpha(29,0)[1] = 0
 (29,_0)[1]: - C30 + beta(29,0) - alpha(29,0)[2] + alpha(29,0)[3] = 0
 (29,_0)[2]: - C34 + beta(29,0) - alpha(29,0)[4] + alpha(29,0)[5] = 0
 29: C29 - beta(29,0) + 0.0784084389773061 alpha(29,0)[0]
   - 0.2415915610226939 alpha(29,0)[1] + 0.4184084389773061 alpha(29,0)[2]
   - 0.5815915610226938 alpha(29,0)[3] + 0.2584084389773061 alpha(29,0)[4]
   - 0.4215915610226939 alpha(29,0)[5] = 0.1
 (30,_0)[0]: - C30 + beta(30,0) - alpha(30,0)[0] + alpha(30,0)[1] = 0
 (30,_0)[1]: - C31 + beta(30,0) - alpha(30,0)[2] + alpha(30,0)[3] = 0
 (30,_0)[2]: - C35 + beta(30,0) - alpha(30,0)[4] + alpha(30,0)[5] = 0
 30: C30 - beta(30,0) + 0.1621327819269414 alpha(30,0)[0]
   - 0.2885338847397252 alpha(30,0)[1] + 0.4367994485936081 alpha(30,0)[2]
   - 0.5632005514063919 alpha(30,0)[3] + 0.2114661152602748 alpha(30,0)[4]
   - 0.3378672180730586 alpha(30,0)[5] = 0.1
 (31,_0)[0]: - C31 + beta(31,0) - alpha(31,0)[0] + alpha(31,0)[1] = 0
 (31,_0)[1]: - C32 + beta(31,0) - alpha(31,0)[2] + alpha(31,0)[3] = 0
 (31,_0)[2]: - C36 + beta(31,0) - alpha(31,0)[4] + alpha(31,0)[5] = 0
 31: C31 - beta(31,0) + 0.1593396354199189 alpha(31,0)[0]
   - 0.3006603645800812 alpha(31,0)[1] + 0.4293396354199189 alpha(31,0)[2]
   - 0.5706603645800812 alpha(31,0)[3] + 0.1993396354199189 alpha(31,0)[4]
   - 0.3406603645800811 alpha(31,0)[5] = 0.1
 (32,_0)[0]: - C32 + beta(32,0) - alpha(32,0)[0] + alpha(32,0)[1] = 0
 (32,_0)[1]: - C33 + beta(32,0) - alpha(32,0)[2] + alpha(32,0)[3] = 0
 (32,_0)[2]: - C37 + beta(32,0) - alpha(32,0)[4] + alpha(32,0)[5] = 0
 32: C32 - beta(32,0) + 0.1126126584659592 alpha(32,0)[0]
   - 0.3573873415340408 alpha(32,0)[1] + 0.3776126584659592 alpha(32,0)[2]
   - 0.6223873415340408 alpha(32,0)[3] + 0.1426126584659592 alpha(32,0)[4]
   - 0.3873873415340409 alpha(32,0)[5] = 0.1
 (33,_0)[0]: - C29 + beta(33,0) - alpha(33,0)[0] + alpha(33,0)[1] = 0
 (33,_0)[1]: - C33 + beta(33,0) - alpha(33,0)[2] + alpha(33,0)[3] = 0
 (33,_0)[2]: - C38 + beta(33,0) - alpha(33,0)[4] + alpha(33,0)[5] = 0
 33: C33 - beta(33,0) + 0.4000711540886218 alpha(33,0)[0]
   - 0.5999288459113782 alpha(33,0)[1] + 0.1534044874219551 alpha(33,0)[2]
   - 0.3532621792447116 alpha(33,0)[3] + 0.1467378207552884 alpha(33,0)[4]
   - 0.3465955125780449 alpha(33,0)[5] = 0.1
 (34,_0)[0]: - C34 + beta(34,0) - alpha(34,0)[0] + alpha(34,0)[1] = 0
 (34,_0)[1]: - C35 + beta(34,0) - alpha(34,0)[2] + alpha(34,0)[3] = 0
 (34,_0)[2]: - C39 + beta(34,0) - alpha(34,0)[4] + alpha(34,0)[5] = 0
 34: C34 - beta(34,0) + 0.1384590808698857 alpha(34,0)[0]
   - 0.3115409191301143 alpha(34,0)[1] + 0.4134590808698858 alpha(34,0)[2]
   - 0.5865409191301143 alpha(34,0)[3] + 0.1884590808698858 alpha(34,0)[4]
   - 0.3615409191301143 alpha(34,0)[5] = 0.1
 (35,_0)[0]: - C35 + beta(35,0) - alpha(35,0)[0] + alpha(35,0)[1] = 0
 (35,_0)[1]: - C36 + beta(35,0) - alpha(35,0)[2] + alpha(35,0)[3] = 0
 (35,_0)[2]: - C40 + beta(35,0) - alpha(35,0)[4] + alpha(35,0)[5] = 0
 35: C35 - beta(35,0) + 0.0788669285002187 alpha(35,0)[0]
   - 0.2097045000712099 alpha(35,0)[1] + 0.4345812142145044 alpha(35,0)[2]
   - 0.5654187857854955 alpha(35,0)[3] + 0.2902954999287901 alpha(35,0)[4]
   - 0.4211330714997813 alpha(35,0)[5] = 0.1
 (36,_0)[0]: - C36 + beta(36,0) - alpha(36,0)[0] + alpha(36,0)[1] = 0
 (36,_0)[1]: - C37 + beta(36,0) - alpha(36,0)[2] + alpha(36,0)[3] = 0
 (36,_0)[2]: - C41 + beta(36,0) - alpha(36,0)[4] + alpha(36,0)[5] = 0
 36: C36 - beta(36,0) + 5.9544879590102406e-04 alpha(36,0)[0]
   - 0.155404551204099 alpha(36,0)[1] + 0.4225954487959011 alpha(36,0)[2]
   - 0.5774045512040989 alpha(36,0)[3] + 0.344595448795901 alpha(36,0)[4]
   - 0.499404551204099 alpha(36,0)[5] = 0.1
 (37,_0)[0]: - C37 + beta(37,0) - alpha(37,0)[0] + alpha(37,0)[1] = 0
 (37,_0)[1]: - C38 + beta(37,0) - alpha(37,0)[2] + alpha(37,0)[3] = 0
 (37,_0)[2]: - C42 + beta(37,0) - alpha(37,0)[4] + alpha(37,0)[5] = 0
 37: C37 - beta(37,0) + 5.9544879590102406e-04 alpha(37,0)[0]
   - 0.155404551204099 alpha(37,0)[1] + 0.4225954487959011 alpha(37,0)[2]
   - 0.5774045512040989 alpha(37,0)[3] + 0.344595448795901 alpha(37,0)[4]
   - 0.499404551204099 alpha(37,0)[5] = 0.1
 (38,_0)[0]: - C34 + beta(38,0) - alpha(38,0)[0] + alpha(38,0)[1] = 0
 (38,_0)[1]: - C38 + beta(38,0) - alpha(38,0)[2] + alpha(38,0)[3] = 0
 (38,_0)[2]: - C43 + beta(38,0) - alpha(38,0)[4] + alpha(38,0)[5] = 0
 38: C38 - beta(38,0) + 0.4134590808698858 alpha(38,0)[0]
   - 0.5865409191301143 alpha(38,0)[1] + 0.1359590808698857 alpha(38,0)[2]
   - 0.3090409191301143 alpha(38,0)[3] + 0.1909590808698857 alpha(38,0)[4]
   - 0.3640409191301142 alpha(38,0)[5] = 0.1
 (39,_0)[0]: - C39 + beta(39,0) - alpha(39,0)[0] + alpha(39,0)[1] = 0
 (39,_0)[1]: - C40 + beta(39,0) - alpha(39,0)[2] + alpha(39,0)[3] = 0
 (39,_0)[2]: - C44 + beta(39,0) - alpha(39,0)[4] + alpha(39,0)[5] = 0
 39: C39 - beta(39,0) + 0.0788669285002187 alpha(39,0)[0]
   - 0.2097045000712099 alpha(39,0)[1] + 0.4345812142145044 alpha(39,0)[2]
   - 0.5654187857854955 alpha(39,0)[3] + 0.2902954999287901 alpha(39,0)[4]
   - 0.4211330714997813 alpha(39,0)[5] = 0.1
 40: C40 = 0
 (41,_0)[0]: - C41 + beta(41,0) - alpha(41,0)[0] + alpha(41,0)[1] = 0
 (41,_0)[1]: - C42 + beta(41,0) - alpha(41,0)[2] + alpha(41,0)[3] = 0
 (41,_0)[2]: - C46 + beta(41,0) - alpha(41,0)[4] + alpha(41,0)[5] = 0
 41: C41 - beta(41,0) + 0.1384590808698857 alpha(41,0)[0]
   - 0.3115409191301143 alpha(41,0)[1] + 0.4134590808698858 alpha(41,0)[2]
   - 0.5865409191301143 alpha(41,0)[3] + 0.1884590808698858 alpha(41,0)[4]
   - 0.3615409191301143 alpha(41,0)[5] = 0.1
 (42,_0)[0]: - C42 + beta(42,0) - alpha(42,0)[0] + alpha(42,0)[1] = 0
 (42,_0)[1]: - C43 + beta(42,0) - alpha(42,0)[2] + alpha(42,0)[3] = 0
 (42,_0)[2]: - C47 + beta(42,0) - alpha(42,0)[4] + alpha(42,0)[5] = 0
 42: C42 - beta(42,0) + 5.9544879590102406e-04 alpha(42,0)[0]
   - 0.155404551204099 alpha(42,0)[1] + 0.4225954487959011 alpha(42,0)[2]
   - 0.5774045512040989 alpha(42,0)[3] + 0.344595448795901 alpha(42,0)[4]
   - 0.499404551204099 alpha(42,0)[5] = 0.1
 (43,_0)[0]: - C39 + beta(43,0) - alpha(43,0)[0] + alpha(43,0)[1] = 0
 (43,_0)[1]: - C43 + beta(43,0) - alpha(43,0)[2] + alpha(43,0)[3] = 0
 (43,_0)[2]: - C48 + beta(43,0) - alpha(43,0)[4] + alpha(43,0)[5] = 0
 43: C43 - beta(43,0) + 0.4134590808698858 alpha(43,0)[0]
   - 0.5865409191301143 alpha(43,0)[1] + 0.1359590808698857 alpha(43,0)[2]
   - 0.3090409191301143 alpha(43,0)[3] + 0.1909590808698857 alpha(43,0)[4]
   - 0.3640409191301142 alpha(43,0)[5] = 0.1
 (44,_0)[0]: - C24 + beta(44,0) - alpha(44,0)[0] + alpha(44,0)[1] = 0
 (44,_0)[1]: - C44 + beta(44,0) - alpha(44,0)[2] + alpha(44,0)[3] = 0
 (44,_0)[2]: - C45 + beta(44,0) - alpha(44,0)[4] + alpha(44,0)[5] = 0
 44: C44 - beta(44,0) + 0.1993396354199189 alpha(44,0)[0]
   - 0.3406603645800811 alpha(44,0)[1] + 0.1593396354199189 alpha(44,0)[2]
   - 0.3006603645800812 alpha(44,0)[3] + 0.4293396354199189 alpha(44,0)[4]
   - 0.5706603645800812 alpha(44,0)[5] = 0.1
 (45,_0)[0]: - C25 + beta(45,0) - alpha(45,0)[0] + alpha(45,0)[1] = 0
 (45,_0)[1]: - C45 + beta(45,0) - alpha(45,0)[2] + alpha(45,0)[3] = 0
 (45,_0)[2]: - C46 + beta(45,0) - alpha(45,0)[4] + alpha(45,0)[5] = 0
 45: C45 - beta(45,0) + 0.2584084389773061 alpha(45,0)[0]
   - 0.4215915610226939 alpha(45,0)[1] + 0.0784084389773061 alpha(45,0)[2]
   - 0.2415915610226939 alpha(45,0)[3] + 0.4184084389773061 alpha(45,0)[4]
   - 0.5815915610226938 alpha(45,0)[5] = 0.1
 (46,_0)[0]: - C26 + beta(46,0) - alpha(46,0)[0] + alpha(46,0)[1] = 0
 (46,_0)[1]: - C46 + beta(46,0) - alpha(46,0)[2] + alpha(46,0)[3] = 0
 (46,_0)[2]: - C47 + beta(46,0) - alpha(46,0)[4] + alpha(46,0)[5] = 0
 46: C46 - beta(46,0) + 0.344595448795901 alpha(46,0)[0]
   - 0.499404551204099 alpha(46,0)[1]
   + 5.9544879590102406e-04 alpha(46,0)[2]
   - 0.155404551204099 alpha(46,0)[3] + 0.4225954487959011 alpha(46,0)[4]
   - 0.5774045512040989 alpha(46,0)[5] = 0.1
 (47,_0)[0]: - C27 + beta(47,0) - alpha(47,0)[0] + alpha(47,0)[1] = 0
 (47,_0)[1]: - C47 + beta(47,0) - alpha(47,0)[2] + alpha(47,0)[3] = 0
 (47,_0)[2]: - C48 + beta(47,0) - alpha(47,0)[4] + alpha(47,0)[5] = 0
 47: C47 - beta(47,0) + 0.2584084389773061 alpha(47,0)[0]
   - 0.4215915610226939 alpha(47,0)[1] + 0.0784084389773061 alpha(47,0)[2]
   - 0.2415915610226939 alpha(47,0)[3] + 0.4184084389773061 alpha(47,0)[4]
   - 0.5815915610226938 alpha(47,0)[5] = 0.1
 (48,_0)[0]: - C28 + beta(48,0) - alpha(48,0)[0] + alpha(48,0)[1] = 0
 (48,_0)[1]: - C44 + beta(48,0) - alpha(48,0)[2] + alpha(48,0)[3] = 0
 (48,_0)[2]: - C48 + beta(48,0) - alpha(48,0)[4] + alpha(48,0)[5] = 0
 48: C48 - beta(48,0) + 0.1467378207552884 alpha(48,0)[0]
   - 0.3465955125780449 alpha(48,0)[1] + 0.4000711540886218 alpha(48,0)[2]
   - 0.5999288459113782 alpha(48,0)[3] + 0.1534044874219551 alpha(48,0)[4]
   - 0.3532621792447116 alpha(48,0)[5] = 0.1
Bounds
 beta(0,0) free
 beta(1,0) free
 beta(2,0) free
 beta(3,0) free
 beta(4,0) free
 beta(5,0) free
 beta(6,0) free
 beta(7,0) free
 beta(8,0) free
 beta(9,0) free
 beta(10,0) free
 beta(11,0) free
 beta(12,0) free
 beta(13,0) free
 beta(14,0) free
 beta(15,0) free
 beta(16,0) free
 beta(17,0) free
 beta(18,0) free
 beta(19,0) free
 beta(20,0) free
 beta(21,0) free
 beta(22,0) free
 beta(23,0) free
 beta(24,0) free
 beta(25,0) free
 beta(26,0) free
 beta(27,0) free
 beta(28,0) free
 beta(29,0) free
 beta(30,0) free
 beta(31,0) free
 beta(32,0) free
 beta(33,0) free
 beta(34,0) free
 beta(35,0) free
 beta(36,0) free
 beta(37,0) free
 beta(38,0) free
 beta(39,0) free
 beta(41,0) free
 beta(42,0) free
 beta(43,0) free
 beta(44,0) free
 beta(45,0) free
 beta(46,0) free
 beta(47,0) free
 beta(48,0) free
End
